words_hard_train/7341.qaiger
aag 95 16 0 1 79
2
4
8
12
16
20
28
36
38
42
46
50
54
58
70
134
191
6 2 4
10 6 8
14 10 12
18 14 16
22 19 21
24 18 20
26 23 25
30 27 28
32 26 29
34 31 33
40 37 39
44 40 43
48 45 46
52 49 51
56 52 55
60 56 59
62 61 46
64 35 63
66 34 62
68 65 67
72 24 70
74 25 71
76 73 75
78 29 46
80 78 60
82 77 80
84 76 81
86 83 85
88 48 50
90 89 53
92 7 9
94 93 11
96 91 95
98 90 94
100 97 99
102 41 46
104 3 5
106 105 7
108 107 42
110 106 43
112 109 111
114 103 112
116 102 113
118 115 117
120 39 3
122 38 2
124 121 123
126 36 46
128 124 127
130 125 126
132 129 131
136 134 37
138 135 36
140 137 139
142 133 140
144 119 142
146 101 144
148 86 146
150 15 17
152 151 19
154 153 58
156 152 59
158 155 157
160 57 46
162 159 160
164 158 161
166 163 165
168 11 13
170 169 15
172 171 54
174 170 55
176 173 175
178 53 46
180 176 179
182 177 178
184 181 183
186 167 185
188 148 186
190 68 188
i0 2 y2[1]
i1 2 y2[2]
i2 2 y2[3]
i3 2 y2[4]
i4 2 y2[5]
i5 2 y2[6]
i6 1 x2[6]
i7 1 x2[0]
i8 1 x2[1]
i9 1 x2[2]
i10 1 x2[7]
i11 1 x2[3]
i12 1 x2[4]
i13 1 x2[5]
i14 2 y2[7]
i15 2 y2[0]
o0 bool[0]
c
simplified
  !=
    add
      2 y2
      add
        1
        1
    abs
      1 x2
