words_hard_train/7341.qaiger.qdimacs
p cnf 95 238
a 14 18 19 21 23 25 27 29 0
e 1 2 3 4 5 6 7 8 9 10 11 12 13 15 16 17 20 22 24 26 28 30 31 32 33 34 35 36 37 38 39 40 41 42 43 44 45 46 47 48 49 50 51 52 53 54 55 56 57 58 59 60 61 62 63 64 65 66 67 68 69 70 71 72 73 74 75 76 77 78 79 80 81 82 83 84 85 86 87 88 89 90 91 92 93 94 95 0
-1 -2 3 0
1 -3 0
2 -3 0
-3 -4 5 0
3 -5 0
4 -5 0
-5 -6 7 0
5 -7 0
6 -7 0
-7 -8 9 0
7 -9 0
8 -9 0
9 10 11 0
-9 -11 0
-10 -11 0
-9 -10 12 0
9 -12 0
10 -12 0
11 12 13 0
-11 -13 0
-12 -13 0
13 -14 15 0
-13 -15 0
14 -15 0
-13 14 16 0
13 -16 0
-14 -16 0
15 16 17 0
-15 -17 0
-16 -17 0
18 19 20 0
-18 -20 0
-19 -20 0
-20 21 22 0
20 -22 0
-21 -22 0
22 -23 24 0
-22 -24 0
23 -24 0
24 25 26 0
-24 -26 0
-25 -26 0
-26 27 28 0
26 -28 0
-27 -28 0
-28 29 30 0
28 -30 0
-29 -30 0
30 -23 31 0
-30 -31 0
23 -31 0
17 31 32 0
-17 -32 0
-31 -32 0
-17 -31 33 0
17 -33 0
31 -33 0
32 33 34 0
-32 -34 0
-33 -34 0
-12 -35 36 0
12 -36 0
35 -36 0
12 35 37 0
-12 -37 0
-35 -37 0
36 37 38 0
-36 -38 0
-37 -38 0
14 -23 39 0
-14 -39 0
23 -39 0
-39 -30 40 0
39 -40 0
30 -40 0
38 -40 41 0
-38 -41 0
40 -41 0
-38 40 42 0
38 -42 0
-40 -42 0
41 42 43 0
-41 -43 0
-42 -43 0
-24 -25 44 0
24 -44 0
25 -44 0
44 26 45 0
-44 -45 0
-26 -45 0
3 4 46 0
-3 -46 0
-4 -46 0
46 5 47 0
-46 -47 0
-5 -47 0
45 47 48 0
-45 -48 0
-47 -48 0
-45 -47 49 0
45 -49 0
47 -49 0
48 49 50 0
-48 -50 0
-49 -50 0
20 -23 51 0
-20 -51 0
23 -51 0
1 2 52 0
-1 -52 0
-2 -52 0
52 3 53 0
-52 -53 0
-3 -53 0
53 -21 54 0
-53 -54 0
21 -54 0
-53 21 55 0
53 -55 0
-21 -55 0
54 55 56 0
-54 -56 0
-55 -56 0
51 -56 57 0
-51 -57 0
56 -57 0
-51 56 58 0
51 -58 0
-56 -58 0
57 58 59 0
-57 -59 0
-58 -59 0
19 1 60 0
-19 -60 0
-1 -60 0
-19 -1 61 0
19 -61 0
1 -61 0
60 61 62 0
-60 -62 0
-61 -62 0
-18 -23 63 0
18 -63 0
23 -63 0
-62 63 64 0
62 -64 0
-63 -64 0
62 -63 65 0
-62 -65 0
63 -65 0
64 65 66 0
-64 -66 0
-65 -66 0
-67 18 68 0
67 -68 0
-18 -68 0
67 -18 69 0
-67 -69 0
18 -69 0
68 69 70 0
-68 -70 0
-69 -70 0
66 -70 71 0
-66 -71 0
70 -71 0
59 -71 72 0
-59 -72 0
71 -72 0
50 -72 73 0
-50 -73 0
72 -73 0
-43 -73 74 0
43 -74 0
73 -74 0
7 8 75 0
-7 -75 0
-8 -75 0
75 9 76 0
-75 -76 0
-9 -76 0
76 -29 77 0
-76 -77 0
29 -77 0
-76 29 78 0
76 -78 0
-29 -78 0
77 78 79 0
-77 -79 0
-78 -79 0
28 -23 80 0
-28 -80 0
23 -80 0
79 -80 81 0
-79 -81 0
80 -81 0
-79 80 82 0
79 -82 0
-80 -82 0
81 82 83 0
-81 -83 0
-82 -83 0
5 6 84 0
-5 -84 0
-6 -84 0
84 7 85 0
-84 -85 0
-7 -85 0
85 -27 86 0
-85 -86 0
27 -86 0
-85 27 87 0
85 -87 0
-27 -87 0
86 87 88 0
-86 -88 0
-87 -88 0
26 -23 89 0
-26 -89 0
23 -89 0
-88 89 90 0
88 -90 0
-89 -90 0
88 -89 91 0
-88 -91 0
89 -91 0
90 91 92 0
-90 -92 0
-91 -92 0
83 92 93 0
-83 -93 0
-92 -93 0
-74 -93 94 0
74 -94 0
93 -94 0
-34 -94 95 0
34 -95 0
94 -95 0
-95 0
